p cnf 10 26
10 9 8 0
-10 -8 -5 0
-10 8 4 0
-10 8 2 0
10 8 1 0
-10 7 -5 0
-10 7 -4 0
-10 7 1 0
-10 -7 -1 0
-10 -6 -4 0
-10 5 -4 0
-10 -5 -3 0
10 -4 -2 0
10 3 2 0
-10 3 -2 0
9 8 -6 0
-9 8 -1 0
-9 7 -5 0
-9 -7 2 0
-9 -5 -2 0
-8 7 2 0
-8 3 -1 0
-7 6 2 0
6 -2 -1 0
4 -3 2 0
-4 -3 -1 0
